
<<< setup


<<< generate

Version identifier: 22.1.1.0 | 2022-11-27 | 9160aff4d
Tried aggregator 1 time.
MIQCP Presolve eliminated 259 rows and 1 columns.
MIQCP Presolve modified 1518 coefficients.
Reduced MIQCP has 3036 rows, 2854 columns, and 29091 nonzeros.
Reduced MIQCP has 180 binaries, 0 generals, 0 SOSs, and 0 indicators.
Reduced MIQCP has 434 quadratic constraints.
Presolve time = 0,16 sec. (89,38 ticks)
Probing fixed 0 vars, tightened 1773 bounds.
Probing time = 0,05 sec. (41,00 ticks)
Clique table members: 684.
MIP emphasis: balance optimality and feasibility.
MIP search method: dynamic search.
Parallel mode: deterministic, using up to 12 threads.
Root relaxation solution time = 0,00 sec. (13,10 ticks)

        Nodes                                         Cuts/
   Node  Left     Objective  IInf  Best Integer    Best Bound    ItCnt     Gap

      0     0     2396,5759     0                   9258,8191      121         
      0     0     2390,7263    69                     Cone: 1      201         
      0     0     2385,3329    72                     Cone: 2      313         
      0     0     2379,8522    94                     Cone: 3      427         
      0     0     2377,5899   101                     Cone: 4      512         
      0     0     2376,0858   102                     Cone: 5      615         
      0     0     2374,9195   100                     Cone: 6      707         
      0     0     2276,7860    99                   Cone: 766     3224         
      0     0     2276,7836   160                   Cone: 946     3419         
      0     0     2276,7824   180                  Cone: 1126     3601         
      0     0     2276,7817   180                  Cone: 1305     3784         
      0     0     2276,7814   180                  Cone: 1482     3964         
      0     0     2276,7812   180                  Cone: 1654     4138         
      0     0     2276,7811   180                  Cone: 1820     4306         
      0     0     2276,7811   180                  Cone: 1959     4446         
      0     0     2276,7811   180                  Cone: 2012     4498         
      0     0     2276,7811   180                  Cone: 2051     4538         
      0     0     2276,7811   180                  Cone: 2070     4560         
      0     0     2276,7811   180                  Cone: 2080     4570         
      0     0     2276,7811   180                  Cone: 2092     4584         
      0     0     2276,7811   180                  Cone: 2100     4593         
      0     0     2276,7811   180                  Cone: 2108     4604         
      0     0     2276,7811   180                  Cone: 2116     4613         
      0     0     2276,7811   180                   2276,7811     4613         
      0     0     2275,4973   175                   Cuts: 615     6105         
      0     0     2271,8680   177                   Cuts: 126     6346         
      0     0     2269,8198   171                   Cuts: 115     6519         
